Route #1: 2 28 22
Route #2: 1 43 42 41 23
Route #3: 49 24 18 50
Route #4: 7 35 8 46
Route #5: 34 52 4
Route #6: 30 48 21
Route #7: 47 36 37 20
Route #8: 15 5 29 45
Route #9: 27 13 54 19
Route #10: 14 53
Route #11: 11 38
Route #12: 10 31 39
Route #13: 9 25 26
Route #14: 12 40
Route #15: 32 44 3
Route #16: 16 33 6
Route #17: 51 17
Cost 986